min: 200 r10 + 600 r11 + 1000 r12 + 200 r13 + 1600 r15 + 180 r16 + 0 r17 + 0 r19 + 1000 r110+ 600 r111 + 100 r20 + 300 r21 + 500 r22 + 100 r23 +800 r25 + 90 r26 + 0 r27 + 0 r29 + 500 r210 + 300 r211;

tf <= 19;

arco_01: t1 >= t0 -r10 -r20 + 4 ;
arco_12: t2 >= t1 -r11 -r21 + 6 ;
arco_02: t2 >= t0 -r10 -r20 + 4 ;
arco_72: t2 >= t7 -r17 -r27 + 6 ;
arco_23: t3 >= t2 -r12 -r22 + 7 ;
arco_i0: t0 >= ti  + 0 ;
arco_05: t5 >= t0 -r10 -r20 + 4 ;
arco_75: t5 >= t7 -r17 -r27 + 6 ;
arco_105: t5 >= t10 -r110 -r210 + 8 ;
arco_53: t3 >= t5 -r15 -r25 + 4 ;
arco_3f: tf >= t3 -r13 -r23 + 2 ;
arco_5f: tf >= t5 -r15 -r25 + 4 ;
arco_i6: t6 >= ti + 0 ;
arco_9f: tf >= t9 -r19 -r29 + 2 ;
arco_67: t7 >= t6 -r16 -r26 + 5 ;
arco_610: t10 >= t6 -r16 -r26 + 5 ;
arco_79: t9 >= t7 -r17 -r27 + 6 ;
arco_119: t9 >= t11 -r111 -r211 + 7 ;
arco_109: t9 >= t10 -r110 -r210 + 8 ;
arco_1011: t11 >= t10 -r110 -r210 + 8;

r10 <= 0.5 ;
r11 <= 1 ;
r12 <= 3 ;
r13 <= 0.5 ;
r15 <= 0.5 ;
r16 <= 1 ;
r17 <= 0 ;
r19 <= 0 ;
r110 <= 0.5 ;
r111 <= 1 ;

r20 <= 0.5 ;
r21 <= 1 ;
r22 <= 1 ;
r23 <= 0.5 ;
r25 <= 0.5 ;
r26 <= 1 ;
r27 <= 0 ;
r29 <= 0 ;
r210 <= 0.5 ;
r211 <= 1 ;

r20 <= r10 ;
r21 <= r11 ;
r22 <= r12 ;
r23 <= r13 ;
r25 <= r15 ;
r26 <= r16 ;
r27 <= r17 ;
r29 <= r19 ;
r210 <= r110 ;
r211 <= r111 ;

